634 1788 10 0 1439
246 840 2 399 496
1612 2323 1 1174 1290
1974 785 3 248 367
599 169 4 1232 1238
2007 1867 4 159 202
518 1510 2 41 143
2457 579 4 1145 1240
215 1800 4 1041 1048
361 675 3 668 724
1117 173 4 729 797
